Traveling Salesman Problem/TSP_generados/Aleatorio1621103358_11.tsp
NAME: Aleatorio1621103358_11.tsp
COMMENT: Randomly generated scenario
TYPE: TSP
DIMENSION: 11
EDGE_WEIGHT_TYPE: ATT
NODE_COORD_SECTION
1 8.46 32.63
2 47.2 41.61
3 24.96 45.8
4 20.31 4.0
5 38.42 41.88
6 24.5 46.34
7 34.22 21.14
8 23.76 23.07
9 4.74 32.71
10 35.16 21.44
11 7.13 9.98
