Traveling Salesman Problem/TSP_generados/Aleatorio1621103358_11.opt.tour
NAME: Aleatorio1621103358_11.opt.tour
COMMENT: Optimal solution for Aleatorio1621103358_11 (140.15596329321792)
TYPE: TOUR
DIMENSION: 11
TOUR_SECTION
1 9 11 4 8 7 10 2 5 3 6
-1
EOF
